c 1 a1
c 2 a10
c 3 a11
c 4 a12
c 5 a13
c 6 a14
c 7 a15
c 8 a16
c 9 a17
c 10 a18
c 11 a19
c 12 a2
c 13 a20
c 14 a21
c 15 a22
c 16 a23
c 17 a24
c 18 a25
c 19 a26
c 20 a27
c 21 a28
c 22 a29
c 23 a3
c 24 a30
c 25 a31
c 26 a32
c 27 a33
c 28 a34
c 29 a35
c 30 a36
c 31 a37
c 32 a38
c 33 a39
c 34 a4
c 35 a40
c 36 a41
c 37 a42
c 38 a43
c 39 a44
c 40 a45
c 41 a46
c 42 a47
c 43 a48
c 44 a49
c 45 a5
c 46 a50
c 47 a6
c 48 a7
c 49 a8
c 50 a9
c 51 __spec__0
c 52 __spec__1
c 53 __spec__2
c 54 __spec__3
c 55 __spec__4
c 56 __spec__5
c 57 __spec__6
c 58 __spec__7
c 59 __spec__8
c 60 __spec__9
c 61 __spec__10
c 62 __spec__11
c 63 __spec__12
c 64 __spec__13
c 65 __spec__14
c 66 __spec__15
c 67 __spec__16
c 68 __spec__17
c 69 __spec__18
c 70 __spec__19
c 71 __spec__20
c 72 __spec__21
c 73 __spec__22
c 74 __spec__23
c 75 __spec__24
c 76 __spec__25
c 77 __spec__26
c 78 __spec__27
c 79 __spec__28
c 80 __spec__29
c 81 __spec__30
c 82 __spec__31
c 83 __spec__32
c 84 __spec__33
c 85 __spec__34
c 86 __spec__35
c 87 __spec__36
c 88 __spec__37
c 89 __spec__38
c 90 __spec__39
c 91 __spec__40
c 92 __spec__41
c 93 __spec__42
c 94 __spec__43
c 95 __spec__44
c 96 __spec__45
c 97 __spec__46
c 98 __spec__47
c MAIN 99 __spec__48
p cnf 99 97
44 -51
46 -51
43 -52
51 -52
42 -53
52 -53
41 -54
53 -54
40 -55
54 -55
39 -56
55 -56
38 -57
56 -57
37 -58
57 -58
36 -59
58 -59
35 -60
59 -60
33 -61
60 -61
32 -62
61 -62
31 -63
62 -63
30 -64
63 -64
29 -65
64 -65
28 -66
65 -66
27 -67
66 -67
26 -68
67 -68
25 -69
68 -69
24 -70
69 -70
22 -71
70 -71
21 -72
71 -72
20 -73
72 -73
19 -74
73 -74
18 -75
74 -75
17 -76
75 -76
16 -77
76 -77
15 -78
77 -78
14 -79
78 -79
13 -80
79 -80
11 -81
80 -81
10 -82
81 -82
9 -83
82 -83
8 -84
83 -84
7 -85
84 -85
6 -86
85 -86
5 -87
86 -87
4 -88
87 -88
3 -89
88 -89
2 -90
89 -90
50 -91
90 -91
49 -92
91 -92
48 -93
92 -93
47 -94
93 -94
45 -95
94 -95
34 -96
95 -96
23 -97
96 -97
12 -98
97 -98
-99 1 98
